(set-info :smt-lib-version 2.7)
(set-logic ALL)
(set-info :source |
Generated on: 2026-06-22
Generator: pog2smtlib-2.7 github.com/CLEARSY/pog2smtlib-2.7 (-l HO_ALL -rpX)
Application: Discharging a proof obligation generated by aTelierB from an anonymized B machine
Target solver: CVC5 (--mbqi --enum-inst)
Time limit: 1200.0
|)
(set-info :license "www.gnu.org/licenses/gpl-3.0.en.html")
(set-info :category "industrial")
(set-info :status unknown)

(set-option :print-success false)
(define-sort |Z| () Int)
(declare-sort P 1)
(declare-datatype C (par (T1 T2) ((maplet (fst T1) (snd T2)))))
(declare-datatype |s20| ((s21)(s22)(s23)(s24)(s25)(s26)(s27)))
(declare-sort |s3| 0)
(declare-sort |s5| 0)
(define-sort |POW Z| () (P |Z|))
(define-sort |(Z x s20)| () (C |Z| |s20|))
(define-sort |POW s20| () (P |s20|))
(define-sort |POW s3| () (P |s3|))
(define-sort |(Z x s3)| () (C |Z| |s3|))
(declare-sort |s1| 0)
(define-sort |(s5 x s3)| () (C |s5| |s3|))
(define-sort |POW s5| () (P |s5|))
(declare-fun |set.in Z| (|Z| |POW Z|) Bool)
(define-sort |POW (Z x s20)| () (P |(Z x s20)|))
(declare-fun |set.in s20| (|s20| |POW s20|) Bool)
(define-sort |((Z x s20) x Z)| () (C |(Z x s20)| |Z|))
(declare-fun |set.in s3| (|s3| |POW s3|) Bool)
(define-sort |POW (Z x s3)| () (P |(Z x s3)|))
(define-sort |((s5 x s3) x s1)| () (C |(s5 x s3)| |s1|))
(declare-sort |s28| 0)
(define-sort |POW s1| () (P |s1|))
(declare-fun |set.in s5| (|s5| |POW s5|) Bool)
(define-sort |POW (s5 x s3)| () (P |(s5 x s3)|))
(declare-fun |set.in (Z x s20)| (|(Z x s20)| |POW (Z x s20)|) Bool)
(define-sort |POW ((Z x s20) x Z)| () (P |((Z x s20) x Z)|))
(declare-fun |set.in (Z x s3)| (|(Z x s3)| |POW (Z x s3)|) Bool)
(define-sort |POW POW (Z x s3)| () (P |POW (Z x s3)|))
(define-sort |(((s5 x s3) x s1) x s28)| () (C |((s5 x s3) x s1)| |s28|))
(declare-fun |set.in s1| (|s1| |POW s1|) Bool)
(define-sort |POW ((s5 x s3) x s1)| () (P |((s5 x s3) x s1)|))
(declare-fun |set.in (s5 x s3)| (|(s5 x s3)| |POW (s5 x s3)|) Bool)
(define-sort |POW s28| () (P |s28|))
(declare-fun |set.in ((Z x s20) x Z)| (|((Z x s20) x Z)| |POW ((Z x s20) x Z)|) Bool)
(define-sort |POW POW ((Z x s20) x Z)| () (P |POW ((Z x s20) x Z)|))
(declare-fun |set.subseteq (Z x s3)| (|POW (Z x s3)| |POW (Z x s3)|) Bool)
(assert (!
    (forall ((s |POW (Z x s3)|) (t |POW (Z x s3)|))
      (=
        (|set.subseteq (Z x s3)| s t)
        (forall ((e |(Z x s3)|)) (=> (|set.in (Z x s3)| e s) (|set.in (Z x s3)| e t)))
      )
    )
    :named |ax.set.subseteq (Z x s3)|))
(declare-fun |set.in POW (Z x s3)| (|POW (Z x s3)| |POW POW (Z x s3)|) Bool)
(define-sort |POW (((s5 x s3) x s1) x s28)| () (P |(((s5 x s3) x s1) x s28)|))
(declare-fun |set.in ((s5 x s3) x s1)| (|((s5 x s3) x s1)| |POW ((s5 x s3) x s1)|) Bool)
(declare-fun |set.in s28| (|s28| |POW s28|) Bool)
(define-sort |BOOL| () Bool)
(define-sort |(Z x Z)| () (C |Z| |Z|))
(declare-fun |set.subseteq ((Z x s20) x Z)| (|POW ((Z x s20) x Z)| |POW ((Z x s20) x Z)|) Bool)
(assert (!
    (forall ((s |POW ((Z x s20) x Z)|) (t |POW ((Z x s20) x Z)|))
      (=
        (|set.subseteq ((Z x s20) x Z)| s t)
        (forall ((e |((Z x s20) x Z)|)) (=> (|set.in ((Z x s20) x Z)| e s) (|set.in ((Z x s20) x Z)| e t)))
      )
    )
    :named |ax.set.subseteq ((Z x s20) x Z)|))
(declare-fun |set.in POW ((Z x s20) x Z)| (|POW ((Z x s20) x Z)| |POW POW ((Z x s20) x Z)|) Bool)
(declare-fun |sub-sets (Z x s3)| (|POW (Z x s3)|) |POW POW (Z x s3)|)
(assert (!
  (forall ((s |POW (Z x s3)|) (t |POW (Z x s3)|))
    (=
      (|set.in POW (Z x s3)| s (|sub-sets (Z x s3)| t))
      (|set.subseteq (Z x s3)| s t)))
  :named |ax.sub-sets (Z x s3)|))
(declare-fun |set.product Z s3| (|POW Z| |POW s3|) |POW (Z x s3)|)
(assert (!
  (forall ((s1 |POW Z|) (s2 |POW s3|))
    (forall ((p |(Z x s3)|))
      (= (|set.in (Z x s3)| p (|set.product Z s3| s1 s2))
        (and (|set.in Z| (fst p) s1) (|set.in s3| (snd p) s2)))))
  :named |ax.set.in.product.1 (Z x s3)|))
(assert (!
  (forall ((s1 |POW Z|) (s2 |POW s3|))
    (forall ((x1 |Z|) (x2 |s3|))
      (= (|set.in (Z x s3)| (maplet x1 x2) (|set.product Z s3| s1 s2))
        (and (|set.in Z| x1 s1) (|set.in s3| x2 s2)))))
  :named |ax.set.in.product.2 (Z x s3)|))
(define-sort |((s5 x s3) x Z)| () (C |(s5 x s3)| |Z|))
(declare-fun |set.in (((s5 x s3) x s1) x s28)| (|(((s5 x s3) x s1) x s28)| |POW (((s5 x s3) x s1) x s28)|) Bool)
(define-sort |POW POW (((s5 x s3) x s1) x s28)| () (P |POW (((s5 x s3) x s1) x s28)|))
(define-sort |POW BOOL| () (P |BOOL|))
(define-sort |((s5 x s3) x BOOL)| () (C |(s5 x s3)| |BOOL|))
(define-sort |POW (Z x Z)| () (P |(Z x Z)|))
(define-sort |((s5 x s3) x (Z x Z))| () (C |(s5 x s3)| |(Z x Z)|))
(declare-fun |sub-sets ((Z x s20) x Z)| (|POW ((Z x s20) x Z)|) |POW POW ((Z x s20) x Z)|)
(assert (!
  (forall ((s |POW ((Z x s20) x Z)|) (t |POW ((Z x s20) x Z)|))
    (=
      (|set.in POW ((Z x s20) x Z)| s (|sub-sets ((Z x s20) x Z)| t))
      (|set.subseteq ((Z x s20) x Z)| s t)))
  :named |ax.sub-sets ((Z x s20) x Z)|))
(declare-fun |set.product (Z x s20) Z| (|POW (Z x s20)| |POW Z|) |POW ((Z x s20) x Z)|)
(assert (!
  (forall ((s1 |POW (Z x s20)|) (s2 |POW Z|))
    (forall ((p |((Z x s20) x Z)|))
      (= (|set.in ((Z x s20) x Z)| p (|set.product (Z x s20) Z| s1 s2))
        (and (|set.in (Z x s20)| (fst p) s1) (|set.in Z| (snd p) s2)))))
  :named |ax.set.in.product.1 ((Z x s20) x Z)|))
(assert (!
  (forall ((s1 |POW (Z x s20)|) (s2 |POW Z|))
    (forall ((x1 |(Z x s20)|) (x2 |Z|))
      (= (|set.in ((Z x s20) x Z)| (maplet x1 x2) (|set.product (Z x s20) Z| s1 s2))
        (and (|set.in (Z x s20)| x1 s1) (|set.in Z| x2 s2)))))
  :named |ax.set.in.product.2 ((Z x s20) x Z)|))
(declare-fun |functions Z s3| (|POW Z| |POW s3|) |POW POW (Z x s3)|)
(assert (!
  (forall ((X |POW Z|) (Y |POW s3|))
    (forall ((f |POW (Z x s3)|))
      (= (|set.in POW (Z x s3)| f (|functions Z s3| X Y))
         (forall ((p |(Z x s3)|) (q |(Z x s3)|))
           (=> (and (|set.in (Z x s3)| p f) (|set.in (Z x s3)| q f) (= (fst p) (fst q)))
               (= (snd p) (snd q)))))))
:named |ax:set.in.functions (Z x s3)|))
(declare-fun |relations Z s3| (|POW Z| |POW s3|) |POW POW (Z x s3)|)
(assert (!
  (forall ((X |POW Z|) (Y |POW s3|))
    (= (|relations Z s3| X Y)
       (|sub-sets (Z x s3)| (|set.product Z s3| X Y))))
    :named |def.relations (Z x s3)|))
(declare-fun |rel.domain Z s3| (|POW (Z x s3)|) |POW Z|)
(assert (!
  (forall ((r |POW (Z x s3)|) (e |Z|))
    (= (|set.in Z| e (|rel.domain Z s3| r))
       (exists ((y |s3|)) (|set.in (Z x s3)| (maplet e y) r))))
  :named |ax:set.in.domain (Z x s3)|))
(define-sort |POW ((s5 x s3) x Z)| () (P |((s5 x s3) x Z)|))
(declare-fun |set.subseteq (((s5 x s3) x s1) x s28)| (|POW (((s5 x s3) x s1) x s28)| |POW (((s5 x s3) x s1) x s28)|) Bool)
(assert (!
    (forall ((s |POW (((s5 x s3) x s1) x s28)|) (t |POW (((s5 x s3) x s1) x s28)|))
      (=
        (|set.subseteq (((s5 x s3) x s1) x s28)| s t)
        (forall ((e |(((s5 x s3) x s1) x s28)|)) (=> (|set.in (((s5 x s3) x s1) x s28)| e s) (|set.in (((s5 x s3) x s1) x s28)| e t)))
      )
    )
    :named |ax.set.subseteq (((s5 x s3) x s1) x s28)|))
(declare-fun |set.in POW (((s5 x s3) x s1) x s28)| (|POW (((s5 x s3) x s1) x s28)| |POW POW (((s5 x s3) x s1) x s28)|) Bool)
(declare-fun |set.in BOOL| (|BOOL| |POW BOOL|) Bool)
(define-sort |POW ((s5 x s3) x BOOL)| () (P |((s5 x s3) x BOOL)|))
(declare-fun |set.in (Z x Z)| (|(Z x Z)| |POW (Z x Z)|) Bool)
(define-sort |POW ((s5 x s3) x (Z x Z))| () (P |((s5 x s3) x (Z x Z))|))
(declare-fun |relations (Z x s20) Z| (|POW (Z x s20)| |POW Z|) |POW POW ((Z x s20) x Z)|)
(assert (!
  (forall ((X |POW (Z x s20)|) (Y |POW Z|))
    (= (|relations (Z x s20) Z| X Y)
       (|sub-sets ((Z x s20) x Z)| (|set.product (Z x s20) Z| X Y))))
    :named |def.relations ((Z x s20) x Z)|))
(declare-fun |functions (Z x s20) Z| (|POW (Z x s20)| |POW Z|) |POW POW ((Z x s20) x Z)|)
(assert (!
  (forall ((X |POW (Z x s20)|) (Y |POW Z|))
    (forall ((f |POW ((Z x s20) x Z)|))
      (= (|set.in POW ((Z x s20) x Z)| f (|functions (Z x s20) Z| X Y))
         (forall ((p |((Z x s20) x Z)|) (q |((Z x s20) x Z)|))
           (=> (and (|set.in ((Z x s20) x Z)| p f) (|set.in ((Z x s20) x Z)| q f) (= (fst p) (fst q)))
               (= (snd p) (snd q)))))))
:named |ax:set.in.functions ((Z x s20) x Z)|))
(declare-fun |rel.domain (Z x s20) Z| (|POW ((Z x s20) x Z)|) |POW (Z x s20)|)
(assert (!
  (forall ((r |POW ((Z x s20) x Z)|) (e |(Z x s20)|))
    (= (|set.in (Z x s20)| e (|rel.domain (Z x s20) Z| r))
       (exists ((y |Z|)) (|set.in ((Z x s20) x Z)| (maplet e y) r))))
  :named |ax:set.in.domain ((Z x s20) x Z)|))
(declare-fun |functions.partial Z s3| (|POW Z| |POW s3|) |POW POW (Z x s3)|)
(assert (!
  (forall ((e1 |POW Z|) (e2 |POW s3|))
    (forall ((f |POW (Z x s3)|))
      (= (|set.in POW (Z x s3)| f (|functions.partial Z s3| e1 e2))
         (and (|set.in POW (Z x s3)| f (|relations Z s3| e1 e2))
              (|set.in POW (Z x s3)| f (|functions Z s3| e1 e2))))))
  :named |ax:def.pfun (Z x s3)|)
)
(declare-fun |relations.total Z s3| (|POW Z| |POW s3|) |POW POW (Z x s3)|)
(assert (!
  (forall ((X |POW Z|) (Y |POW s3|))
    (forall ((f |POW (Z x s3)|))
      (= (|set.in POW (Z x s3)| f (|relations.total Z s3| X Y))
         (= (|rel.domain Z s3| f) X))))
 :named |ax:set.in.relations.total (Z x s3)|))
(declare-fun |set.in ((s5 x s3) x Z)| (|((s5 x s3) x Z)| |POW ((s5 x s3) x Z)|) Bool)
(declare-fun |sub-sets (((s5 x s3) x s1) x s28)| (|POW (((s5 x s3) x s1) x s28)|) |POW POW (((s5 x s3) x s1) x s28)|)
(assert (!
  (forall ((s |POW (((s5 x s3) x s1) x s28)|) (t |POW (((s5 x s3) x s1) x s28)|))
    (=
      (|set.in POW (((s5 x s3) x s1) x s28)| s (|sub-sets (((s5 x s3) x s1) x s28)| t))
      (|set.subseteq (((s5 x s3) x s1) x s28)| s t)))
  :named |ax.sub-sets (((s5 x s3) x s1) x s28)|))
(declare-fun |set.product ((s5 x s3) x s1) s28| (|POW ((s5 x s3) x s1)| |POW s28|) |POW (((s5 x s3) x s1) x s28)|)
(assert (!
  (forall ((s1 |POW ((s5 x s3) x s1)|) (s2 |POW s28|))
    (forall ((p |(((s5 x s3) x s1) x s28)|))
      (= (|set.in (((s5 x s3) x s1) x s28)| p (|set.product ((s5 x s3) x s1) s28| s1 s2))
        (and (|set.in ((s5 x s3) x s1)| (fst p) s1) (|set.in s28| (snd p) s2)))))
  :named |ax.set.in.product.1 (((s5 x s3) x s1) x s28)|))
(assert (!
  (forall ((s1 |POW ((s5 x s3) x s1)|) (s2 |POW s28|))
    (forall ((x1 |((s5 x s3) x s1)|) (x2 |s28|))
      (= (|set.in (((s5 x s3) x s1) x s28)| (maplet x1 x2) (|set.product ((s5 x s3) x s1) s28| s1 s2))
        (and (|set.in ((s5 x s3) x s1)| x1 s1) (|set.in s28| x2 s2)))))
  :named |ax.set.in.product.2 (((s5 x s3) x s1) x s28)|))
(declare-fun |set.in ((s5 x s3) x BOOL)| (|((s5 x s3) x BOOL)| |POW ((s5 x s3) x BOOL)|) Bool)
(declare-fun |set.in ((s5 x s3) x (Z x Z))| (|((s5 x s3) x (Z x Z))| |POW ((s5 x s3) x (Z x Z))|) Bool)
(declare-fun |functions.partial (Z x s20) Z| (|POW (Z x s20)| |POW Z|) |POW POW ((Z x s20) x Z)|)
(assert (!
  (forall ((e1 |POW (Z x s20)|) (e2 |POW Z|))
    (forall ((f |POW ((Z x s20) x Z)|))
      (= (|set.in POW ((Z x s20) x Z)| f (|functions.partial (Z x s20) Z| e1 e2))
         (and (|set.in POW ((Z x s20) x Z)| f (|relations (Z x s20) Z| e1 e2))
              (|set.in POW ((Z x s20) x Z)| f (|functions (Z x s20) Z| e1 e2))))))
  :named |ax:def.pfun ((Z x s20) x Z)|)
)
(declare-fun |relations.total (Z x s20) Z| (|POW (Z x s20)| |POW Z|) |POW POW ((Z x s20) x Z)|)
(assert (!
  (forall ((X |POW (Z x s20)|) (Y |POW Z|))
    (forall ((f |POW ((Z x s20) x Z)|))
      (= (|set.in POW ((Z x s20) x Z)| f (|relations.total (Z x s20) Z| X Y))
         (= (|rel.domain (Z x s20) Z| f) X))))
 :named |ax:set.in.relations.total ((Z x s20) x Z)|))
(declare-const s15 |POW (s5 x s3)|)
(declare-const s60 |s1|)
(declare-const s49 |Z|)
(declare-const s0 |s1|)
(declare-const s31 |POW (s5 x s3)|)
(declare-const s38 |s28|)
(declare-const s14 |POW (s5 x s3)|)
(declare-const s19 |POW (s5 x s3)|)
(declare-const s50 |POW (s5 x s3)|)
(declare-const s2 |s3|)
(declare-const s9 |s5|)
(declare-const s13 |POW (s5 x s3)|)
(declare-const s11 |s5|)
(declare-const s43 |s28|)
(declare-const s67$1 |POW s3|)
(declare-const s8 |POW s5|)
(declare-const s58 |s5|)
(declare-const s41 |s28|)
(declare-const s6 |POW s5|)
(declare-const s4 |POW s5|)
(declare-const s17 |POW (s5 x s3)|)
(declare-const s53 |POW (s5 x s3)|)
(declare-const s30 |POW (s5 x s3)|)
(declare-const s54 |POW ((s5 x s3) x s1)|)
(declare-const s46 |POW (Z x s3)|)
(declare-const s18 |POW ((s5 x s3) x s1)|)
(declare-const s16 |POW s3|)
(declare-const s39 |s28|)
(declare-const s37 |POW (((s5 x s3) x s1) x s28)|)
(declare-const s29 |Z|)
(declare-const s55 |POW (s5 x s3)|)
(declare-const s59$1 |s3|)
(declare-const s1 |POW s1|)
(declare-const s58$1 |s5|)
(declare-const s10 |s5|)
(declare-const s48 |POW (s5 x s3)|)
(declare-const s56$1 |POW (((s5 x s3) x s1) x s28)|)
(declare-const s63$1 |POW (s5 x s3)|)
(declare-const s47 |POW (Z x s3)|)
(declare-const s35 |POW ((Z x s20) x Z)|)
(declare-const s59$2 |s3|)
(declare-const s51 |Z|)
(declare-const s57$1 |Z|)
(declare-const s47$1 |POW (Z x s3)|)
(declare-const s28 |POW s28|)
(declare-const s64$1 |POW (s5 x s3)|)
(declare-const s61$1 |s28|)
(declare-const s46$1 |POW (Z x s3)|)
(declare-const s59 |s3|)
(declare-const s45$1 |Z|)
(declare-const s60$1 |s1|)
(declare-const s42 |s28|)
(declare-const s56 |POW (((s5 x s3) x s1) x s28)|)
(declare-const s36 |POW ((Z x s20) x Z)|)
(declare-const s61 |s28|)
(declare-const s7 |POW s5|)
(declare-const s5 |POW s5|)
(declare-const s3 |POW s3|)
(declare-const s66$1 |BOOL|)
(declare-const s57 |Z|)
(declare-const s12 |s5|)
(declare-const s40 |s28|)
(declare-const s45 |Z|)
(declare-const s49$1 |Z|)
(declare-const s52 |s20|)
(declare-const s65$1 |POW (s5 x s3)|)
(declare-const s33 |POW ((Z x s20) x Z)|)
(declare-const s20 |POW s20|)
(declare-const s32 |POW ((Z x s20) x Z)|)
(declare-const s34 |POW ((Z x s20) x Z)|)
(declare-fun |set.union (s5 x s3)| (|POW (s5 x s3)| |POW (s5 x s3)|) |POW (s5 x s3)|)
(assert (!
  (forall ((e |(s5 x s3)|) (s |POW (s5 x s3)|) (t |POW (s5 x s3)|))
    (= (|set.in (s5 x s3)| e (|set.union (s5 x s3)| s t))
       (or (|set.in (s5 x s3)| e s) (|set.in (s5 x s3)| e t))))
  :named |ax.set.in.union (s5 x s3)|))
(define-sort |? s3| () (-> |s3| Bool))
(declare-const |set.intent s3| (-> |? s3| |POW s3|))
(assert (!
  (forall ((p |? s3|))
    (forall ((x |s3|))
      (= (|set.in s3| x (|set.intent s3| p))
         (@ p x))))
  :named |ax:set.in.intent s3|))
(assert (!
  (forall ((s |POW (s5 x s3)|) (t |POW (s5 x s3)|))
    (=
      (= s t)
      (forall ((e |(s5 x s3)|)) (= (|set.in (s5 x s3)| e s) (|set.in (s5 x s3)| e t)))))
  :named |ax.set.eq (s5 x s3)|))
(assert (!
  (forall ((s |POW (((s5 x s3) x s1) x s28)|) (t |POW (((s5 x s3) x s1) x s28)|))
    (=
      (= s t)
      (forall ((e |(((s5 x s3) x s1) x s28)|)) (= (|set.in (((s5 x s3) x s1) x s28)| e s) (|set.in (((s5 x s3) x s1) x s28)| e t)))))
  :named |ax.set.eq (((s5 x s3) x s1) x s28)|))
(define-sort |? s28| () (-> |s28| Bool))
(declare-const |set.intent s28| (-> |? s28| |POW s28|))
(assert (!
  (forall ((p |? s28|))
    (forall ((x |s28|))
      (= (|set.in s28| x (|set.intent s28| p))
         (@ p x))))
  :named |ax:set.in.intent s28|))
(declare-fun |set.union (((s5 x s3) x s1) x s28)| (|POW (((s5 x s3) x s1) x s28)| |POW (((s5 x s3) x s1) x s28)|) |POW (((s5 x s3) x s1) x s28)|)
(assert (!
  (forall ((e |(((s5 x s3) x s1) x s28)|) (s |POW (((s5 x s3) x s1) x s28)|) (t |POW (((s5 x s3) x s1) x s28)|))
    (= (|set.in (((s5 x s3) x s1) x s28)| e (|set.union (((s5 x s3) x s1) x s28)| s t))
       (or (|set.in (((s5 x s3) x s1) x s28)| e s) (|set.in (((s5 x s3) x s1) x s28)| e t))))
  :named |ax.set.in.union (((s5 x s3) x s1) x s28)|))
(declare-fun |set.subseteq s5| (|POW s5| |POW s5|) Bool)
(assert (!
    (forall ((s |POW s5|) (t |POW s5|))
      (=
        (|set.subseteq s5| s t)
        (forall ((e |s5|)) (=> (|set.in s5| e s) (|set.in s5| e t)))
      )
    )
    :named |ax.set.subseteq s5|))
(declare-fun |set.diff s5| (|POW s5| |POW s5|) |POW s5|)
(assert (!
  (forall ((e |s5|) (s |POW s5|) (t |POW s5|))
    (= (|set.in s5| e (|set.diff s5| s t))
       (and (|set.in s5| e s) (not (|set.in s5| e t)))))
  :named |ax.set.in.diff s5|))
(declare-fun |set.union s5| (|POW s5| |POW s5|) |POW s5|)
(assert (!
  (forall ((e |s5|) (s |POW s5|) (t |POW s5|))
    (= (|set.in s5| e (|set.union s5| s t))
       (or (|set.in s5| e s) (|set.in s5| e t))))
  :named |ax.set.in.union s5|))
(define-sort |? s5| () (-> |s5| Bool))
(declare-const |set.intent s5| (-> |? s5| |POW s5|))
(assert (!
  (forall ((p |? s5|))
    (forall ((x |s5|))
      (= (|set.in s5| x (|set.intent s5| p))
         (@ p x))))
  :named |ax:set.in.intent s5|))
(assert (!
  (forall ((s |POW s5|) (t |POW s5|))
    (=
      (= s t)
      (forall ((e |s5|)) (= (|set.in s5| e s) (|set.in s5| e t)))))
  :named |ax.set.eq s5|))
(declare-fun |functions.total Z s3| (|POW Z| |POW s3|) |POW POW (Z x s3)|)
(assert (!
  (forall ((e1 |POW Z|) (e2 |POW s3|))
    (forall ((f |POW (Z x s3)|))
      (= (|set.in POW (Z x s3)| f (|functions.total Z s3| e1 e2))
         (and (|set.in POW (Z x s3)| f (|functions.partial Z s3| e1 e2))
              (|set.in POW (Z x s3)| f (|relations.total Z s3| e1 e2))))))
  :named |ax:def.tfun (Z x s3)|))
(declare-fun |rel.domain (s5 x s3) Z| (|POW ((s5 x s3) x Z)|) |POW (s5 x s3)|)
(assert (!
  (forall ((r |POW ((s5 x s3) x Z)|) (e |(s5 x s3)|))
    (= (|set.in (s5 x s3)| e (|rel.domain (s5 x s3) Z| r))
       (exists ((y |Z|)) (|set.in ((s5 x s3) x Z)| (maplet e y) r))))
  :named |ax:set.in.domain ((s5 x s3) x Z)|))
(declare-fun |rel.restrict.ran (s5 x s3) Z| (|POW ((s5 x s3) x Z)| |POW Z|) |POW ((s5 x s3) x Z)|)
(assert (!
  (forall ((r |POW ((s5 x s3) x Z)|) (e |POW Z|))
    (forall ((x |((s5 x s3) x Z)|))
      (= (|set.in ((s5 x s3) x Z)| x (|rel.restrict.ran (s5 x s3) Z| r e))
         (and (|set.in ((s5 x s3) x Z)| x r) (|set.in Z| (snd x) e)))))
  :named |ax:set.in.restrict.ran ((s5 x s3) x Z)|))
(declare-fun |set.product (s5 x s3) s1| (|POW (s5 x s3)| |POW s1|) |POW ((s5 x s3) x s1)|)
(assert (!
  (forall ((s1 |POW (s5 x s3)|) (s2 |POW s1|))
    (forall ((p |((s5 x s3) x s1)|))
      (= (|set.in ((s5 x s3) x s1)| p (|set.product (s5 x s3) s1| s1 s2))
        (and (|set.in (s5 x s3)| (fst p) s1) (|set.in s1| (snd p) s2)))))
  :named |ax.set.in.product.1 ((s5 x s3) x s1)|))
(assert (!
  (forall ((s1 |POW (s5 x s3)|) (s2 |POW s1|))
    (forall ((x1 |(s5 x s3)|) (x2 |s1|))
      (= (|set.in ((s5 x s3) x s1)| (maplet x1 x2) (|set.product (s5 x s3) s1| s1 s2))
        (and (|set.in (s5 x s3)| x1 s1) (|set.in s1| x2 s2)))))
  :named |ax.set.in.product.2 ((s5 x s3) x s1)|))
(declare-fun |set.product s5 s3| (|POW s5| |POW s3|) |POW (s5 x s3)|)
(assert (!
  (forall ((s1 |POW s5|) (s2 |POW s3|))
    (forall ((p |(s5 x s3)|))
      (= (|set.in (s5 x s3)| p (|set.product s5 s3| s1 s2))
        (and (|set.in s5| (fst p) s1) (|set.in s3| (snd p) s2)))))
  :named |ax.set.in.product.1 (s5 x s3)|))
(assert (!
  (forall ((s1 |POW s5|) (s2 |POW s3|))
    (forall ((x1 |s5|) (x2 |s3|))
      (= (|set.in (s5 x s3)| (maplet x1 x2) (|set.product s5 s3| s1 s2))
        (and (|set.in s5| x1 s1) (|set.in s3| x2 s2)))))
  :named |ax.set.in.product.2 (s5 x s3)|))
(declare-fun |relations ((s5 x s3) x s1) s28| (|POW ((s5 x s3) x s1)| |POW s28|) |POW POW (((s5 x s3) x s1) x s28)|)
(assert (!
  (forall ((X |POW ((s5 x s3) x s1)|) (Y |POW s28|))
    (= (|relations ((s5 x s3) x s1) s28| X Y)
       (|sub-sets (((s5 x s3) x s1) x s28)| (|set.product ((s5 x s3) x s1) s28| X Y))))
    :named |def.relations (((s5 x s3) x s1) x s28)|))
(declare-fun |rel.domain (s5 x s3) BOOL| (|POW ((s5 x s3) x BOOL)|) |POW (s5 x s3)|)
(assert (!
  (forall ((r |POW ((s5 x s3) x BOOL)|) (e |(s5 x s3)|))
    (= (|set.in (s5 x s3)| e (|rel.domain (s5 x s3) BOOL| r))
       (exists ((y |BOOL|)) (|set.in ((s5 x s3) x BOOL)| (maplet e y) r))))
  :named |ax:set.in.domain ((s5 x s3) x BOOL)|))
(declare-fun |rel.restrict.ran (s5 x s3) BOOL| (|POW ((s5 x s3) x BOOL)| |POW BOOL|) |POW ((s5 x s3) x BOOL)|)
(assert (!
  (forall ((r |POW ((s5 x s3) x BOOL)|) (e |POW BOOL|))
    (forall ((x |((s5 x s3) x BOOL)|))
      (= (|set.in ((s5 x s3) x BOOL)| x (|rel.restrict.ran (s5 x s3) BOOL| r e))
         (and (|set.in ((s5 x s3) x BOOL)| x r) (|set.in BOOL| (snd x) e)))))
  :named |ax:set.in.restrict.ran ((s5 x s3) x BOOL)|))
(define-sort |? BOOL| () (-> |BOOL| Bool))
(declare-const |set.intent BOOL| (-> |? BOOL| |POW BOOL|))
(assert (!
  (forall ((p |? BOOL|))
    (forall ((x |BOOL|))
      (= (|set.in BOOL| x (|set.intent BOOL| p))
         (@ p x))))
  :named |ax:set.in.intent BOOL|))
(declare-fun |set.product (s5 x s3) BOOL| (|POW (s5 x s3)| |POW BOOL|) |POW ((s5 x s3) x BOOL)|)
(assert (!
  (forall ((s1 |POW (s5 x s3)|) (s2 |POW BOOL|))
    (forall ((p |((s5 x s3) x BOOL)|))
      (= (|set.in ((s5 x s3) x BOOL)| p (|set.product (s5 x s3) BOOL| s1 s2))
        (and (|set.in (s5 x s3)| (fst p) s1) (|set.in BOOL| (snd p) s2)))))
  :named |ax.set.in.product.1 ((s5 x s3) x BOOL)|))
(assert (!
  (forall ((s1 |POW (s5 x s3)|) (s2 |POW BOOL|))
    (forall ((x1 |(s5 x s3)|) (x2 |BOOL|))
      (= (|set.in ((s5 x s3) x BOOL)| (maplet x1 x2) (|set.product (s5 x s3) BOOL| s1 s2))
        (and (|set.in (s5 x s3)| x1 s1) (|set.in BOOL| x2 s2)))))
  :named |ax.set.in.product.2 ((s5 x s3) x BOOL)|))
(declare-fun |set.product (s5 x s3) Z| (|POW (s5 x s3)| |POW Z|) |POW ((s5 x s3) x Z)|)
(assert (!
  (forall ((s1 |POW (s5 x s3)|) (s2 |POW Z|))
    (forall ((p |((s5 x s3) x Z)|))
      (= (|set.in ((s5 x s3) x Z)| p (|set.product (s5 x s3) Z| s1 s2))
        (and (|set.in (s5 x s3)| (fst p) s1) (|set.in Z| (snd p) s2)))))
  :named |ax.set.in.product.1 ((s5 x s3) x Z)|))
(assert (!
  (forall ((s1 |POW (s5 x s3)|) (s2 |POW Z|))
    (forall ((x1 |(s5 x s3)|) (x2 |Z|))
      (= (|set.in ((s5 x s3) x Z)| (maplet x1 x2) (|set.product (s5 x s3) Z| s1 s2))
        (and (|set.in (s5 x s3)| x1 s1) (|set.in Z| x2 s2)))))
  :named |ax.set.in.product.2 ((s5 x s3) x Z)|))
(define-sort |? Z| () (-> |Z| Bool))
(declare-const |set.intent Z| (-> |? Z| |POW Z|))
(assert (!
  (forall ((p |? Z|))
    (forall ((x |Z|))
      (= (|set.in Z| x (|set.intent Z| p))
         (@ p x))))
  :named |ax:set.in.intent Z|))
(declare-fun |rel.restrict.dom s5 s3| (|POW s5| |POW (s5 x s3)|) |POW (s5 x s3)|)
(assert (!
  (forall ((r |POW (s5 x s3)|) (e |POW s5|))
    (forall ((x |(s5 x s3)|))
      (= (|set.in (s5 x s3)| x (|rel.restrict.dom s5 s3| e r))
        (and (|set.in (s5 x s3)| x r) (|set.in s5| (fst x) e)))))
  :named |ax:set.in.restrict.dom (s5 x s3)|))
(define-sort |? (s5 x s3)| () (-> |(s5 x s3)| Bool))
(declare-const |set.intent (s5 x s3)| (-> |? (s5 x s3)| |POW (s5 x s3)|))
(assert (!
  (forall ((p |? (s5 x s3)|))
    (forall ((x |(s5 x s3)|))
      (= (|set.in (s5 x s3)| x (|set.intent (s5 x s3)| p))
         (@ p x))))
  :named |ax:set.in.intent (s5 x s3)|))
(assert (!
  (forall ((s |POW ((s5 x s3) x s1)|) (t |POW ((s5 x s3) x s1)|))
    (=
      (= s t)
      (forall ((e |((s5 x s3) x s1)|)) (= (|set.in ((s5 x s3) x s1)| e s) (|set.in ((s5 x s3) x s1)| e t)))))
  :named |ax.set.eq ((s5 x s3) x s1)|))
(define-sort |? s1| () (-> |s1| Bool))
(declare-const |set.intent s1| (-> |? s1| |POW s1|))
(assert (!
  (forall ((p |? s1|))
    (forall ((x |s1|))
      (= (|set.in s1| x (|set.intent s1| p))
         (@ p x))))
  :named |ax:set.in.intent s1|))
(declare-fun |set.union ((s5 x s3) x s1)| (|POW ((s5 x s3) x s1)| |POW ((s5 x s3) x s1)|) |POW ((s5 x s3) x s1)|)
(assert (!
  (forall ((e |((s5 x s3) x s1)|) (s |POW ((s5 x s3) x s1)|) (t |POW ((s5 x s3) x s1)|))
    (= (|set.in ((s5 x s3) x s1)| e (|set.union ((s5 x s3) x s1)| s t))
       (or (|set.in ((s5 x s3) x s1)| e s) (|set.in ((s5 x s3) x s1)| e t))))
  :named |ax.set.in.union ((s5 x s3) x s1)|))
(declare-const INTEGER |POW Z|)
(assert (!
  (forall ((e |Z|)) (|set.in Z| e INTEGER))
  :named |ax.set.in.INTEGER|))
(declare-fun |set.product (s5 x s3) (Z x Z)| (|POW (s5 x s3)| |POW (Z x Z)|) |POW ((s5 x s3) x (Z x Z))|)
(assert (!
  (forall ((s1 |POW (s5 x s3)|) (s2 |POW (Z x Z)|))
    (forall ((p |((s5 x s3) x (Z x Z))|))
      (= (|set.in ((s5 x s3) x (Z x Z))| p (|set.product (s5 x s3) (Z x Z)| s1 s2))
        (and (|set.in (s5 x s3)| (fst p) s1) (|set.in (Z x Z)| (snd p) s2)))))
  :named |ax.set.in.product.1 ((s5 x s3) x (Z x Z))|))
(assert (!
  (forall ((s1 |POW (s5 x s3)|) (s2 |POW (Z x Z)|))
    (forall ((x1 |(s5 x s3)|) (x2 |(Z x Z)|))
      (= (|set.in ((s5 x s3) x (Z x Z))| (maplet x1 x2) (|set.product (s5 x s3) (Z x Z)| s1 s2))
        (and (|set.in (s5 x s3)| x1 s1) (|set.in (Z x Z)| x2 s2)))))
  :named |ax.set.in.product.2 ((s5 x s3) x (Z x Z))|))
(define-sort |? (Z x Z)| () (-> |(Z x Z)| Bool))
(declare-const |set.intent (Z x Z)| (-> |? (Z x Z)| |POW (Z x Z)|))
(assert (!
  (forall ((p |? (Z x Z)|))
    (forall ((x |(Z x Z)|))
      (= (|set.in (Z x Z)| x (|set.intent (Z x Z)| p))
         (@ p x))))
  :named |ax:set.in.intent (Z x Z)|))
(declare-fun |rel.subtract.ran (s5 x s3) (Z x Z)| (|POW ((s5 x s3) x (Z x Z))| |POW (Z x Z)|) |POW ((s5 x s3) x (Z x Z))|)
(assert (!
  (forall ((r |POW ((s5 x s3) x (Z x Z))|) (e |POW (Z x Z)|))
    (forall ((x |((s5 x s3) x (Z x Z))|))
      (= (|set.in ((s5 x s3) x (Z x Z))| x (|rel.subtract.ran (s5 x s3) (Z x Z)| r e))
        (and (|set.in ((s5 x s3) x (Z x Z))| x r) (not (|set.in (Z x Z)| (snd x) e))))))
  :named |ax:set.in.subtract.ran ((s5 x s3) x (Z x Z))|))
(declare-fun |rel.domain (s5 x s3) (Z x Z)| (|POW ((s5 x s3) x (Z x Z))|) |POW (s5 x s3)|)
(assert (!
  (forall ((r |POW ((s5 x s3) x (Z x Z))|) (e |(s5 x s3)|))
    (= (|set.in (s5 x s3)| e (|rel.domain (s5 x s3) (Z x Z)| r))
       (exists ((y |(Z x Z)|)) (|set.in ((s5 x s3) x (Z x Z))| (maplet e y) r))))
  :named |ax:set.in.domain ((s5 x s3) x (Z x Z))|))
(declare-fun |interval| (|Z| |Z|) |POW Z|)
 (assert (!
    (forall ((l |Z|) (u |Z|) (e |Z|))
        (= (|set.in Z| e (|interval| l u))
            (and (<= l e) (<= e u))))
    :named |ax.set.in.interval|))
(assert (!
  (forall ((s |POW (Z x s3)|) (t |POW (Z x s3)|))
    (=
      (= s t)
      (forall ((e |(Z x s3)|)) (= (|set.in (Z x s3)| e s) (|set.in (Z x s3)| e t)))))
  :named |ax.set.eq (Z x s3)|))
(declare-fun |functions.total (Z x s20) Z| (|POW (Z x s20)| |POW Z|) |POW POW ((Z x s20) x Z)|)
(assert (!
  (forall ((e1 |POW (Z x s20)|) (e2 |POW Z|))
    (forall ((f |POW ((Z x s20) x Z)|))
      (= (|set.in POW ((Z x s20) x Z)| f (|functions.total (Z x s20) Z| e1 e2))
         (and (|set.in POW ((Z x s20) x Z)| f (|functions.partial (Z x s20) Z| e1 e2))
              (|set.in POW ((Z x s20) x Z)| f (|relations.total (Z x s20) Z| e1 e2))))))
  :named |ax:def.tfun ((Z x s20) x Z)|))
(declare-fun |set.product Z s20| (|POW Z| |POW s20|) |POW (Z x s20)|)
(assert (!
  (forall ((s1 |POW Z|) (s2 |POW s20|))
    (forall ((p |(Z x s20)|))
      (= (|set.in (Z x s20)| p (|set.product Z s20| s1 s2))
        (and (|set.in Z| (fst p) s1) (|set.in s20| (snd p) s2)))))
  :named |ax.set.in.product.1 (Z x s20)|))
(assert (!
  (forall ((s1 |POW Z|) (s2 |POW s20|))
    (forall ((x1 |Z|) (x2 |s20|))
      (= (|set.in (Z x s20)| (maplet x1 x2) (|set.product Z s20| s1 s2))
        (and (|set.in Z| x1 s1) (|set.in s20| x2 s2)))))
  :named |ax.set.in.product.2 (Z x s20)|))
(declare-fun |set.union ((Z x s20) x Z)| (|POW ((Z x s20) x Z)| |POW ((Z x s20) x Z)|) |POW ((Z x s20) x Z)|)
(assert (!
  (forall ((e |((Z x s20) x Z)|) (s |POW ((Z x s20) x Z)|) (t |POW ((Z x s20) x Z)|))
    (= (|set.in ((Z x s20) x Z)| e (|set.union ((Z x s20) x Z)| s t))
       (or (|set.in ((Z x s20) x Z)| e s) (|set.in ((Z x s20) x Z)| e t))))
  :named |ax.set.in.union ((Z x s20) x Z)|))
(assert (!
  (forall ((s |POW ((Z x s20) x Z)|) (t |POW ((Z x s20) x Z)|))
    (=
      (= s t)
      (forall ((e |((Z x s20) x Z)|)) (= (|set.in ((Z x s20) x Z)| e s) (|set.in ((Z x s20) x Z)| e t)))))
  :named |ax.set.eq ((Z x s20) x Z)|))
(define-sort |? s20| () (-> |s20| Bool))
(declare-const |set.intent s20| (-> |? s20| |POW s20|))
(assert (!
  (forall ((p |? s20|))
    (forall ((x |s20|))
      (= (|set.in s20| x (|set.intent s20| p))
         (@ p x))))
  :named |ax:set.in.intent s20|))
(assert (!
  (= s57$1 2)
  :named |Local_Hyp:0|))
(assert (!
  (|set.in (((s5 x s3) x s1) x s28)| (maplet (maplet (maplet s58$1 s59$1) s60$1) s61$1) s56)
  :named |Local_Hyp:1|))
(assert (!
  (|set.in POW (((s5 x s3) x s1) x s28)| s56$1 (|relations ((s5 x s3) x s1) s28| (|set.product (s5 x s3) s1| (|set.product s5 s3| s5 s3) s1) s28))
  :named |Local_Hyp:3|))
(assert (!
  (= s30 (|set.product s5 s3| s5 s3))
  :named |Define:aprp:6|))
(assert (!
  (= s31 (|set.product s5 s3| s5 s3))
  :named |Define:aprp:7|))
(assert (!
  (= s37 (|set.union (((s5 x s3) x s1) x s28)| (|set.union (((s5 x s3) x s1) x s28)| (|set.union (((s5 x s3) x s1) x s28)| (|set.union (((s5 x s3) x s1) x s28)| (|set.union (((s5 x s3) x s1) x s28)| (|set.product ((s5 x s3) x s1) s28| (|set.product (s5 x s3) s1| s17 s1) (|set.intent s28| (lambda ((_c0 |s28|)) (= _c0 s38)))) (|set.product ((s5 x s3) x s1) s28| s18 (|set.intent s28| (lambda ((_c0 |s28|)) (= _c0 s39))))) (|set.product ((s5 x s3) x s1) s28| (|set.product (s5 x s3) s1| s19 s1) (|set.intent s28| (lambda ((_c0 |s28|)) (= _c0 s40))))) (|set.product ((s5 x s3) x s1) s28| (|set.product (s5 x s3) s1| s30 s1) (|set.intent s28| (lambda ((_c0 |s28|)) (= _c0 s41))))) (|set.product ((s5 x s3) x s1) s28| (|set.product (s5 x s3) s1| s31 s1) (|set.intent s28| (lambda ((_c0 |s28|)) (= _c0 s42))))) (|set.product ((s5 x s3) x s1) s28| (|set.product (s5 x s3) s1| (|set.product s5 s3| s5 s3) s1) (|set.intent s28| (lambda ((_c0 |s28|)) (= _c0 s43))))))
  :named |Define:aprp:24|))
(assert (!
  (|set.subseteq s5| s7 (|set.diff s5| s5 s4))
  :named |Define:lprp:15|))
(assert (!
  (|set.subseteq s5| s8 (|set.diff s5| s5 (|set.union s5| s4 s7)))
  :named |Define:lprp:16|))
(assert (!
  (|set.in s5| s9 (|set.diff s5| s5 (|set.union s5| (|set.union s5| (|set.union s5| s4 s7) s8) (|set.intent s5| (lambda ((_c0 |s5|)) (or (= _c0 s10)(= _c0 s11)(= _c0 s12)))))))
  :named |Define:lprp:17|))
(assert (!
  (|set.in s5| s10 (|set.diff s5| s5 (|set.union s5| (|set.union s5| (|set.union s5| s4 s7) s8) (|set.intent s5| (lambda ((_c0 |s5|)) (or (= _c0 s9)(= _c0 s11)(= _c0 s12)))))))
  :named |Define:lprp:18|))
(assert (!
  (|set.in s5| s11 (|set.diff s5| s5 (|set.union s5| (|set.union s5| (|set.union s5| s4 s7) s8) (|set.intent s5| (lambda ((_c0 |s5|)) (or (= _c0 s9)(= _c0 s10)(= _c0 s12)))))))
  :named |Define:lprp:19|))
(assert (!
  (|set.in s5| s12 (|set.diff s5| s5 (|set.union s5| (|set.union s5| (|set.union s5| s4 s7) s8) (|set.intent s5| (lambda ((_c0 |s5|)) (or (= _c0 s9)(= _c0 s10)(= _c0 s11)))))))
  :named |Define:lprp:20|))
(assert (!
  (= s5 (|set.union s5| (|set.union s5| (|set.union s5| s4 s7) s8) (|set.intent s5| (lambda ((_c0 |s5|)) (or (= _c0 s9)(= _c0 s10)(= _c0 s11)(= _c0 s12))))))
  :named |Define:lprp:21|))
(assert (!
  (= s17 (|set.union (s5 x s3)| (|set.union (s5 x s3)| (|set.union (s5 x s3)| (|set.union (s5 x s3)| (|set.union (s5 x s3)| (|set.union (s5 x s3)| (|rel.restrict.dom s5 s3| s4 s13) (|set.product s5 s3| s8 s16)) (|set.product s5 s3| (|set.intent s5| (lambda ((_c0 |s5|)) (or (= _c0 s9)(= _c0 s10)))) s16)) (|set.product s5 s3| s7 (|set.intent s3| (lambda ((_c0 |s3|)) (= _c0 s2))))) (|set.product s5 s3| s6 s3)) (|set.product s5 s3| (|set.intent s5| (lambda ((_c0 |s5|)) (= _c0 s11))) s3)) (|set.intent (s5 x s3)| (lambda ((_c0 |(s5 x s3)|)) (= _c0 (maplet s12 s2))))))
  :named |Define:lprp:22|))
(assert (!
  (= s18 (|set.union ((s5 x s3) x s1)| (|set.product (s5 x s3) s1| (|set.union (s5 x s3)| (|set.union (s5 x s3)| (|rel.restrict.dom s5 s3| s4 s14) (|set.product s5 s3| s8 s16)) (|set.intent (s5 x s3)| (lambda ((_c0 |(s5 x s3)|)) (= _c0 (maplet s12 s2))))) s1) (|set.product (s5 x s3) s1| (|set.product s5 s3| (|set.intent s5| (lambda ((_c0 |s5|)) (or (= _c0 s9)(= _c0 s10)))) s16) (|set.intent s1| (lambda ((_c0 |s1|)) (= _c0 s0))))))
  :named |Define:lprp:23|))
(assert (!
  (|set.in POW (Z x s3)| s46$1 (|relations Z s3| INTEGER s3))
  :named |Define:abs:2|))
(assert (!
  (|set.in POW (Z x s3)| s47$1 (|relations Z s3| INTEGER s3))
  :named |Define:abs:3|))
(assert (!
  (= s48 (|rel.domain (s5 x s3) (Z x Z)| (|rel.subtract.ran (s5 x s3) (Z x Z)| (|set.product (s5 x s3) (Z x Z)| (|set.product s5 s3| s5 s3) (|set.intent (Z x Z)| (lambda ((_c0 |(Z x Z)|)) (= _c0 (maplet s29 0))))) (|set.intent (Z x Z)| (lambda ((_c0 |(Z x Z)|)) (= _c0 (maplet s45$1 s49$1)))))))
  :named |Define:abs:4|))
(assert (!
  (= s50 (|rel.domain (s5 x s3) (Z x Z)| (|rel.subtract.ran (s5 x s3) (Z x Z)| (|set.product (s5 x s3) (Z x Z)| (|set.product s5 s3| s5 s3) (|set.intent (Z x Z)| (lambda ((_c0 |(Z x Z)|)) (= _c0 (maplet 0 0))))) (|set.intent (Z x Z)| (lambda ((_c0 |(Z x Z)|)) (= _c0 (maplet s45$1 s49$1)))))))
  :named |Define:abs:5|))
(assert (!
  (|set.in POW (Z x s3)| s46$1 (|functions.total Z s3| (|interval| 1 s29) s3))
  :named |Define:abs:7|))
(assert (!
  (|set.in POW (Z x s3)| s47$1 (|functions.total Z s3| (|interval| 1 s29) s3))
  :named |Define:abs:8|))
(assert (!
  (= s56 (|set.union (((s5 x s3) x s1) x s28)| (|set.union (((s5 x s3) x s1) x s28)| (|set.union (((s5 x s3) x s1) x s28)| (|set.union (((s5 x s3) x s1) x s28)| (|set.union (((s5 x s3) x s1) x s28)| (|set.product ((s5 x s3) x s1) s28| (|set.product (s5 x s3) s1| s53 s1) (|set.intent s28| (lambda ((_c0 |s28|)) (= _c0 s38)))) (|set.product ((s5 x s3) x s1) s28| s54 (|set.intent s28| (lambda ((_c0 |s28|)) (= _c0 s39))))) (|set.product ((s5 x s3) x s1) s28| (|set.product (s5 x s3) s1| s55 s1) (|set.intent s28| (lambda ((_c0 |s28|)) (= _c0 s40))))) (|set.product ((s5 x s3) x s1) s28| (|set.product (s5 x s3) s1| s48 s1) (|set.intent s28| (lambda ((_c0 |s28|)) (= _c0 s41))))) (|set.product ((s5 x s3) x s1) s28| (|set.product (s5 x s3) s1| s50 s1) (|set.intent s28| (lambda ((_c0 |s28|)) (= _c0 s42))))) (|set.product ((s5 x s3) x s1) s28| (|set.product (s5 x s3) s1| (|set.product s5 s3| s5 s3) s1) (|set.intent s28| (lambda ((_c0 |s28|)) (= _c0 s43))))))
  :named |Define:abs:18|))
(assert (!
  (= s57 s57$1)
  :named |Define:inv:0|))
(assert (!
  (= s58 s58$1)
  :named |Define:inv:1|))
(assert (!
  (= s59 s59$1)
  :named |Define:inv:2|))
(assert (!
  (= s60 s60$1)
  :named |Define:inv:3|))
(assert (!
  (= s61 s61$1)
  :named |Define:inv:4|))
(assert (!
  (= s53 (|set.union (s5 x s3)| (|set.union (s5 x s3)| (|set.union (s5 x s3)| (|set.union (s5 x s3)| (|set.union (s5 x s3)| (|set.union (s5 x s3)| (|rel.restrict.dom s5 s3| s4 s63$1) (|set.product s5 s3| s8 s67$1)) (|set.product s5 s3| (|set.intent s5| (lambda ((_c0 |s5|)) (or (= _c0 s9)(= _c0 s10)))) s67$1)) (|set.product s5 s3| s7 (|set.intent s3| (lambda ((_c0 |s3|)) (= _c0 s2))))) (|rel.domain (s5 x s3) Z| (|rel.restrict.ran (s5 x s3) Z| (|set.product (s5 x s3) Z| (|set.product s5 s3| s6 s3) (|set.intent Z| (lambda ((_c0 |Z|)) (= _c0 1)))) (|set.intent Z| (lambda ((_c0 |Z|)) (= _c0 s49$1)))))) (|set.product s5 s3| (|set.intent s5| (lambda ((_c0 |s5|)) (= _c0 s11))) s3)) (|set.intent (s5 x s3)| (lambda ((_c0 |(s5 x s3)|)) (= _c0 (maplet s12 s2))))))
  :named |Define:inv:16|))
(assert (!
  (= s54 (|set.union ((s5 x s3) x s1)| (|set.product (s5 x s3) s1| (|set.union (s5 x s3)| (|set.union (s5 x s3)| (|set.union (s5 x s3)| (|rel.restrict.dom s5 s3| s4 s64$1) (|set.product s5 s3| s8 s67$1)) (|rel.domain (s5 x s3) BOOL| (|rel.restrict.ran (s5 x s3) BOOL| (|set.product (s5 x s3) BOOL| (|set.product s5 s3| s7 (|set.intent s3| (lambda ((_c0 |s3|)) (= _c0 s2)))) (|set.intent BOOL| (lambda ((_c0 |BOOL|)) (= _c0 false)))) (|set.intent BOOL| (lambda ((_c0 |BOOL|)) (= _c0 s66$1)))))) (|set.intent (s5 x s3)| (lambda ((_c0 |(s5 x s3)|)) (= _c0 (maplet s12 s2))))) s1) (|set.product (s5 x s3) s1| (|set.product s5 s3| (|set.intent s5| (lambda ((_c0 |s5|)) (or (= _c0 s9)(= _c0 s10)))) s67$1) (|set.intent s1| (lambda ((_c0 |s1|)) (= _c0 s0))))))
  :named |Define:inv:17|))
(assert (!
  (< 0 s29)
  :named |Define:aprp:8|))
(assert (!
  (not
  (|set.in s28| s38 (|set.intent s28| (lambda ((_c0 |s28|)) (or (= _c0 s39)(= _c0 s40)(= _c0 s41)(= _c0 s42)(= _c0 s43))))))
  :named |Define:aprp:32|))
(assert (!
  (not
  (|set.in s28| s39 (|set.intent s28| (lambda ((_c0 |s28|)) (or (= _c0 s38)(= _c0 s40)(= _c0 s41)(= _c0 s42)(= _c0 s43))))))
  :named |Define:aprp:33|))
(assert (!
  (not
  (|set.in s28| s40 (|set.intent s28| (lambda ((_c0 |s28|)) (or (= _c0 s38)(= _c0 s39)(= _c0 s41)(= _c0 s42)(= _c0 s43))))))
  :named |Define:aprp:34|))
(assert (!
  (not
  (|set.in s28| s41 (|set.intent s28| (lambda ((_c0 |s28|)) (or (= _c0 s38)(= _c0 s39)(= _c0 s40)(= _c0 s42)(= _c0 s43))))))
  :named |Define:aprp:35|))
(assert (!
  (not
  (|set.in s28| s42 (|set.intent s28| (lambda ((_c0 |s28|)) (or (= _c0 s38)(= _c0 s39)(= _c0 s40)(= _c0 s41)(= _c0 s43))))))
  :named |Define:aprp:36|))
(assert (!
  (not
  (|set.in s28| s43 (|set.intent s28| (lambda ((_c0 |s28|)) (or (= _c0 s38)(= _c0 s39)(= _c0 s40)(= _c0 s41)(= _c0 s42))))))
  :named |Define:aprp:37|))
(assert (!
  (|set.subseteq s5| s6 s4)
  :named |Define:lprp:14|))
(assert (!
  (= s19 (|rel.restrict.dom s5 s3| s4 s15))
  :named |Define:lprp:24|))
(assert (!
  (|set.in Z| s45$1 (|interval| 0 s29))
  :named |Define:abs:6|))
(assert (!
  (|set.in ((Z x s20) x Z)| (maplet (maplet s51 s52) s49$1) s36)
  :named |Define:abs:12|))
(assert (!
  (|set.in Z| s49$1 (|set.intent Z| (lambda ((_c0 |Z|)) (or (= _c0 0)(= _c0 1)))))
  :named |Define:abs:27|))
(assert (!
  (= s49 s49$1)
  :named |Define:inv:6|))
(assert (!
  (= s45 s45$1)
  :named |Define:inv:8|))
(assert (!
  (= s46 s46$1)
  :named |Define:inv:9|))
(assert (!
  (= s47 s47$1)
  :named |Define:inv:10|))
(assert (!
  (= s55 (|rel.restrict.dom s5 s3| s4 s65$1))
  :named |Define:inv:18|))
(assert (!
  (= s36 (|set.union ((Z x s20) x Z)| (|set.union ((Z x s20) x Z)| (|set.union ((Z x s20) x Z)| s32 s33) s34) s35))
  :named |Define:aprp:18|))
(assert (!
  (|set.in POW ((Z x s20) x Z)| s36 (|functions.total (Z x s20) Z| (|set.product Z s20| (|set.intent Z| (lambda ((_c0 |Z|)) (or (= _c0 0)(= _c0 1)))) s20) (|set.intent Z| (lambda ((_c0 |Z|)) (or (= _c0 0)(= _c0 1))))))
  :named |Define:abs:26|))
(assert (!
  (= s32 (|set.product (Z x s20) Z| (|set.product Z s20| (|set.intent Z| (lambda ((_c0 |Z|)) (= _c0 0))) (|set.intent s20| (lambda ((_c0 |s20|)) (or (= _c0 s21)(= _c0 s25)(= _c0 s26)(= _c0 s24)(= _c0 s22))))) (|set.intent Z| (lambda ((_c0 |Z|)) (= _c0 0)))))
  :named |Define:aprp:14|))
(assert (!
  (= s33 (|set.product (Z x s20) Z| (|set.product Z s20| (|set.intent Z| (lambda ((_c0 |Z|)) (= _c0 0))) (|set.intent s20| (lambda ((_c0 |s20|)) (or (= _c0 s27)(= _c0 s23))))) (|set.intent Z| (lambda ((_c0 |Z|)) (= _c0 1)))))
  :named |Define:aprp:15|))
(assert (!
  (= s34 (|set.product (Z x s20) Z| (|set.product Z s20| (|set.intent Z| (lambda ((_c0 |Z|)) (= _c0 1))) (|set.intent s20| (lambda ((_c0 |s20|)) (= _c0 s22)))) (|set.intent Z| (lambda ((_c0 |Z|)) (= _c0 0)))))
  :named |Define:aprp:16|))
(assert (!
  (= s35 (|set.product (Z x s20) Z| (|set.product Z s20| (|set.intent Z| (lambda ((_c0 |Z|)) (= _c0 1))) (|set.intent s20| (lambda ((_c0 |s20|)) (or (= _c0 s21)(= _c0 s25)(= _c0 s26)(= _c0 s24)(= _c0 s27)(= _c0 s23))))) (|set.intent Z| (lambda ((_c0 |Z|)) (= _c0 1)))))
  :named |Define:aprp:17|))
(assert (!
  (not
    (|set.in (((s5 x s3) x s1) x s28)| (maplet (maplet (maplet s58 s59) s60) s61) s56$1))
  :named |Goal|))
(check-sat)
(exit)
